c *********************************
c * Circuit generated by BenCGen
c *
c * Magnitude_49
c *
c * Ports with 1 gate(s): 51
c * Ports with 2 gate(s): 101
c * Ports with 3 gate(s): 1
c * Ports with 4 gate(s): 1
c * Ports with 5 gate(s): 1
c * Ports with 6 gate(s): 1
c * Ports with 7 gate(s): 1
c * Ports with 8 gate(s): 1
c * Ports with 9 gate(s): 1
c * Ports with 10 gate(s): 1
c * Ports with 11 gate(s): 1
c * Ports with 12 gate(s): 1
c * Ports with 13 gate(s): 1
c * Ports with 14 gate(s): 1
c * Ports with 15 gate(s): 1
c * Ports with 16 gate(s): 1
c * Ports with 17 gate(s): 1
c * Ports with 18 gate(s): 1
c * Ports with 19 gate(s): 1
c * Ports with 20 gate(s): 1
c * Ports with 21 gate(s): 1
c * Ports with 22 gate(s): 1
c * Ports with 23 gate(s): 1
c * Ports with 24 gate(s): 1
c * Ports with 25 gate(s): 1
c * Ports with 26 gate(s): 1
c * Ports with 27 gate(s): 1
c * Ports with 28 gate(s): 1
c * Ports with 29 gate(s): 1
c * Ports with 30 gate(s): 1
c * Ports with 31 gate(s): 1
c * Ports with 32 gate(s): 1
c * Ports with 33 gate(s): 1
c * Ports with 34 gate(s): 1
c * Ports with 35 gate(s): 1
c * Ports with 36 gate(s): 1
c * Ports with 37 gate(s): 1
c * Ports with 38 gate(s): 1
c * Ports with 39 gate(s): 1
c * Ports with 40 gate(s): 1
c * Ports with 41 gate(s): 1
c * Ports with 42 gate(s): 1
c * Ports with 43 gate(s): 1
c * Ports with 44 gate(s): 1
c * Ports with 45 gate(s): 1
c * Ports with 46 gate(s): 1
c * Ports with 47 gate(s): 1
c * Ports with 48 gate(s): 1
c * Ports with 49 gate(s): 3
c * Total gates: 201
c *********************************
p cnf 299 1823
1 103 0
-1 -103 0
1 -102 0
103 -102 0
-1 -103 102 0
50 104 0
-50 -104 0
51 105 0
-51 -105 0
52 106 0
-52 -106 0
53 107 0
-53 -107 0
54 108 0
-54 -108 0
55 109 0
-55 -109 0
56 110 0
-56 -110 0
57 111 0
-57 -111 0
58 112 0
-58 -112 0
59 113 0
-59 -113 0
60 114 0
-60 -114 0
61 115 0
-61 -115 0
62 116 0
-62 -116 0
63 117 0
-63 -117 0
64 118 0
-64 -118 0
65 119 0
-65 -119 0
66 120 0
-66 -120 0
67 121 0
-67 -121 0
68 122 0
-68 -122 0
69 123 0
-69 -123 0
70 124 0
-70 -124 0
71 125 0
-71 -125 0
72 126 0
-72 -126 0
73 127 0
-73 -127 0
74 128 0
-74 -128 0
75 129 0
-75 -129 0
76 130 0
-76 -130 0
77 131 0
-77 -131 0
78 132 0
-78 -132 0
79 133 0
-79 -133 0
80 134 0
-80 -134 0
81 135 0
-81 -135 0
82 136 0
-82 -136 0
83 137 0
-83 -137 0
84 138 0
-84 -138 0
85 139 0
-85 -139 0
86 140 0
-86 -140 0
87 141 0
-87 -141 0
88 142 0
-88 -142 0
89 143 0
-89 -143 0
90 144 0
-90 -144 0
91 145 0
-91 -145 0
92 146 0
-92 -146 0
93 147 0
-93 -147 0
94 148 0
-94 -148 0
95 149 0
-95 -149 0
96 150 0
-96 -150 0
97 151 0
-97 -151 0
98 152 0
-98 -152 0
1 50 202 0
-1 50 -202 0
1 -50 -202 0
-1 -50 202 0
1 -153 0
104 -153 0
-1 -104 153 0
2 51 203 0
-2 51 -203 0
2 -51 -203 0
-2 -51 203 0
2 -154 0
105 -154 0
-2 -105 154 0
3 52 204 0
-3 52 -204 0
3 -52 -204 0
-3 -52 204 0
3 -155 0
106 -155 0
-3 -106 155 0
4 53 205 0
-4 53 -205 0
4 -53 -205 0
-4 -53 205 0
4 -156 0
107 -156 0
-4 -107 156 0
5 54 206 0
-5 54 -206 0
5 -54 -206 0
-5 -54 206 0
5 -157 0
108 -157 0
-5 -108 157 0
6 55 207 0
-6 55 -207 0
6 -55 -207 0
-6 -55 207 0
6 -158 0
109 -158 0
-6 -109 158 0
7 56 208 0
-7 56 -208 0
7 -56 -208 0
-7 -56 208 0
7 -159 0
110 -159 0
-7 -110 159 0
8 57 209 0
-8 57 -209 0
8 -57 -209 0
-8 -57 209 0
8 -160 0
111 -160 0
-8 -111 160 0
9 58 210 0
-9 58 -210 0
9 -58 -210 0
-9 -58 210 0
9 -161 0
112 -161 0
-9 -112 161 0
10 59 211 0
-10 59 -211 0
10 -59 -211 0
-10 -59 211 0
10 -162 0
113 -162 0
-10 -113 162 0
11 60 212 0
-11 60 -212 0
11 -60 -212 0
-11 -60 212 0
11 -163 0
114 -163 0
-11 -114 163 0
12 61 213 0
-12 61 -213 0
12 -61 -213 0
-12 -61 213 0
12 -164 0
115 -164 0
-12 -115 164 0
13 62 214 0
-13 62 -214 0
13 -62 -214 0
-13 -62 214 0
13 -165 0
116 -165 0
-13 -116 165 0
14 63 215 0
-14 63 -215 0
14 -63 -215 0
-14 -63 215 0
14 -166 0
117 -166 0
-14 -117 166 0
15 64 216 0
-15 64 -216 0
15 -64 -216 0
-15 -64 216 0
15 -167 0
118 -167 0
-15 -118 167 0
16 65 217 0
-16 65 -217 0
16 -65 -217 0
-16 -65 217 0
16 -168 0
119 -168 0
-16 -119 168 0
17 66 218 0
-17 66 -218 0
17 -66 -218 0
-17 -66 218 0
17 -169 0
120 -169 0
-17 -120 169 0
18 67 219 0
-18 67 -219 0
18 -67 -219 0
-18 -67 219 0
18 -170 0
121 -170 0
-18 -121 170 0
19 68 220 0
-19 68 -220 0
19 -68 -220 0
-19 -68 220 0
19 -171 0
122 -171 0
-19 -122 171 0
20 69 221 0
-20 69 -221 0
20 -69 -221 0
-20 -69 221 0
20 -172 0
123 -172 0
-20 -123 172 0
21 70 222 0
-21 70 -222 0
21 -70 -222 0
-21 -70 222 0
21 -173 0
124 -173 0
-21 -124 173 0
22 71 223 0
-22 71 -223 0
22 -71 -223 0
-22 -71 223 0
22 -174 0
125 -174 0
-22 -125 174 0
23 72 224 0
-23 72 -224 0
23 -72 -224 0
-23 -72 224 0
23 -175 0
126 -175 0
-23 -126 175 0
24 73 225 0
-24 73 -225 0
24 -73 -225 0
-24 -73 225 0
24 -176 0
127 -176 0
-24 -127 176 0
25 74 226 0
-25 74 -226 0
25 -74 -226 0
-25 -74 226 0
25 -177 0
128 -177 0
-25 -128 177 0
26 75 227 0
-26 75 -227 0
26 -75 -227 0
-26 -75 227 0
26 -178 0
129 -178 0
-26 -129 178 0
27 76 228 0
-27 76 -228 0
27 -76 -228 0
-27 -76 228 0
27 -179 0
130 -179 0
-27 -130 179 0
28 77 229 0
-28 77 -229 0
28 -77 -229 0
-28 -77 229 0
28 -180 0
131 -180 0
-28 -131 180 0
29 78 230 0
-29 78 -230 0
29 -78 -230 0
-29 -78 230 0
29 -181 0
132 -181 0
-29 -132 181 0
30 79 231 0
-30 79 -231 0
30 -79 -231 0
-30 -79 231 0
30 -182 0
133 -182 0
-30 -133 182 0
31 80 232 0
-31 80 -232 0
31 -80 -232 0
-31 -80 232 0
31 -183 0
134 -183 0
-31 -134 183 0
32 81 233 0
-32 81 -233 0
32 -81 -233 0
-32 -81 233 0
32 -184 0
135 -184 0
-32 -135 184 0
33 82 234 0
-33 82 -234 0
33 -82 -234 0
-33 -82 234 0
33 -185 0
136 -185 0
-33 -136 185 0
34 83 235 0
-34 83 -235 0
34 -83 -235 0
-34 -83 235 0
34 -186 0
137 -186 0
-34 -137 186 0
35 84 236 0
-35 84 -236 0
35 -84 -236 0
-35 -84 236 0
35 -187 0
138 -187 0
-35 -138 187 0
36 85 237 0
-36 85 -237 0
36 -85 -237 0
-36 -85 237 0
36 -188 0
139 -188 0
-36 -139 188 0
37 86 238 0
-37 86 -238 0
37 -86 -238 0
-37 -86 238 0
37 -189 0
140 -189 0
-37 -140 189 0
38 87 239 0
-38 87 -239 0
38 -87 -239 0
-38 -87 239 0
38 -190 0
141 -190 0
-38 -141 190 0
39 88 240 0
-39 88 -240 0
39 -88 -240 0
-39 -88 240 0
39 -191 0
142 -191 0
-39 -142 191 0
40 89 241 0
-40 89 -241 0
40 -89 -241 0
-40 -89 241 0
40 -192 0
143 -192 0
-40 -143 192 0
41 90 242 0
-41 90 -242 0
41 -90 -242 0
-41 -90 242 0
41 -193 0
144 -193 0
-41 -144 193 0
42 91 243 0
-42 91 -243 0
42 -91 -243 0
-42 -91 243 0
42 -194 0
145 -194 0
-42 -145 194 0
43 92 244 0
-43 92 -244 0
43 -92 -244 0
-43 -92 244 0
43 -195 0
146 -195 0
-43 -146 195 0
44 93 245 0
-44 93 -245 0
44 -93 -245 0
-44 -93 245 0
44 -196 0
147 -196 0
-44 -147 196 0
45 94 246 0
-45 94 -246 0
45 -94 -246 0
-45 -94 246 0
45 -197 0
148 -197 0
-45 -148 197 0
46 95 247 0
-46 95 -247 0
46 -95 -247 0
-46 -95 247 0
46 -198 0
149 -198 0
-46 -149 198 0
47 96 248 0
-47 96 -248 0
47 -96 -248 0
-47 -96 248 0
47 -199 0
150 -199 0
-47 -150 199 0
48 97 249 0
-48 97 -249 0
48 -97 -249 0
-48 -97 249 0
48 -200 0
151 -200 0
-48 -151 200 0
49 98 250 0
-49 98 -250 0
49 -98 -250 0
-49 -98 250 0
49 -201 0
152 -201 0
-49 -152 201 0
153 -251 0
203 -251 0
204 -251 0
205 -251 0
206 -251 0
207 -251 0
208 -251 0
209 -251 0
210 -251 0
211 -251 0
212 -251 0
213 -251 0
214 -251 0
215 -251 0
216 -251 0
217 -251 0
218 -251 0
219 -251 0
220 -251 0
221 -251 0
222 -251 0
223 -251 0
224 -251 0
225 -251 0
226 -251 0
227 -251 0
228 -251 0
229 -251 0
230 -251 0
231 -251 0
232 -251 0
233 -251 0
234 -251 0
235 -251 0
236 -251 0
237 -251 0
238 -251 0
239 -251 0
240 -251 0
241 -251 0
242 -251 0
243 -251 0
244 -251 0
245 -251 0
246 -251 0
247 -251 0
248 -251 0
249 -251 0
250 -251 0
-153 -203 -204 -205 -206 -207 -208 -209 -210 -211 -212 -213 -214 -215 -216 -217 -218 -219 -220 -221 -222 -223 -224 -225 -226 -227 -228 -229 -230 -231 -232 -233 -234 -235 -236 -237 -238 -239 -240 -241 -242 -243 -244 -245 -246 -247 -248 -249 -250 251 0
154 -252 0
204 -252 0
205 -252 0
206 -252 0
207 -252 0
208 -252 0
209 -252 0
210 -252 0
211 -252 0
212 -252 0
213 -252 0
214 -252 0
215 -252 0
216 -252 0
217 -252 0
218 -252 0
219 -252 0
220 -252 0
221 -252 0
222 -252 0
223 -252 0
224 -252 0
225 -252 0
226 -252 0
227 -252 0
228 -252 0
229 -252 0
230 -252 0
231 -252 0
232 -252 0
233 -252 0
234 -252 0
235 -252 0
236 -252 0
237 -252 0
238 -252 0
239 -252 0
240 -252 0
241 -252 0
242 -252 0
243 -252 0
244 -252 0
245 -252 0
246 -252 0
247 -252 0
248 -252 0
249 -252 0
250 -252 0
-154 -204 -205 -206 -207 -208 -209 -210 -211 -212 -213 -214 -215 -216 -217 -218 -219 -220 -221 -222 -223 -224 -225 -226 -227 -228 -229 -230 -231 -232 -233 -234 -235 -236 -237 -238 -239 -240 -241 -242 -243 -244 -245 -246 -247 -248 -249 -250 252 0
155 -253 0
205 -253 0
206 -253 0
207 -253 0
208 -253 0
209 -253 0
210 -253 0
211 -253 0
212 -253 0
213 -253 0
214 -253 0
215 -253 0
216 -253 0
217 -253 0
218 -253 0
219 -253 0
220 -253 0
221 -253 0
222 -253 0
223 -253 0
224 -253 0
225 -253 0
226 -253 0
227 -253 0
228 -253 0
229 -253 0
230 -253 0
231 -253 0
232 -253 0
233 -253 0
234 -253 0
235 -253 0
236 -253 0
237 -253 0
238 -253 0
239 -253 0
240 -253 0
241 -253 0
242 -253 0
243 -253 0
244 -253 0
245 -253 0
246 -253 0
247 -253 0
248 -253 0
249 -253 0
250 -253 0
-155 -205 -206 -207 -208 -209 -210 -211 -212 -213 -214 -215 -216 -217 -218 -219 -220 -221 -222 -223 -224 -225 -226 -227 -228 -229 -230 -231 -232 -233 -234 -235 -236 -237 -238 -239 -240 -241 -242 -243 -244 -245 -246 -247 -248 -249 -250 253 0
156 -254 0
206 -254 0
207 -254 0
208 -254 0
209 -254 0
210 -254 0
211 -254 0
212 -254 0
213 -254 0
214 -254 0
215 -254 0
216 -254 0
217 -254 0
218 -254 0
219 -254 0
220 -254 0
221 -254 0
222 -254 0
223 -254 0
224 -254 0
225 -254 0
226 -254 0
227 -254 0
228 -254 0
229 -254 0
230 -254 0
231 -254 0
232 -254 0
233 -254 0
234 -254 0
235 -254 0
236 -254 0
237 -254 0
238 -254 0
239 -254 0
240 -254 0
241 -254 0
242 -254 0
243 -254 0
244 -254 0
245 -254 0
246 -254 0
247 -254 0
248 -254 0
249 -254 0
250 -254 0
-156 -206 -207 -208 -209 -210 -211 -212 -213 -214 -215 -216 -217 -218 -219 -220 -221 -222 -223 -224 -225 -226 -227 -228 -229 -230 -231 -232 -233 -234 -235 -236 -237 -238 -239 -240 -241 -242 -243 -244 -245 -246 -247 -248 -249 -250 254 0
157 -255 0
207 -255 0
208 -255 0
209 -255 0
210 -255 0
211 -255 0
212 -255 0
213 -255 0
214 -255 0
215 -255 0
216 -255 0
217 -255 0
218 -255 0
219 -255 0
220 -255 0
221 -255 0
222 -255 0
223 -255 0
224 -255 0
225 -255 0
226 -255 0
227 -255 0
228 -255 0
229 -255 0
230 -255 0
231 -255 0
232 -255 0
233 -255 0
234 -255 0
235 -255 0
236 -255 0
237 -255 0
238 -255 0
239 -255 0
240 -255 0
241 -255 0
242 -255 0
243 -255 0
244 -255 0
245 -255 0
246 -255 0
247 -255 0
248 -255 0
249 -255 0
250 -255 0
-157 -207 -208 -209 -210 -211 -212 -213 -214 -215 -216 -217 -218 -219 -220 -221 -222 -223 -224 -225 -226 -227 -228 -229 -230 -231 -232 -233 -234 -235 -236 -237 -238 -239 -240 -241 -242 -243 -244 -245 -246 -247 -248 -249 -250 255 0
158 -256 0
208 -256 0
209 -256 0
210 -256 0
211 -256 0
212 -256 0
213 -256 0
214 -256 0
215 -256 0
216 -256 0
217 -256 0
218 -256 0
219 -256 0
220 -256 0
221 -256 0
222 -256 0
223 -256 0
224 -256 0
225 -256 0
226 -256 0
227 -256 0
228 -256 0
229 -256 0
230 -256 0
231 -256 0
232 -256 0
233 -256 0
234 -256 0
235 -256 0
236 -256 0
237 -256 0
238 -256 0
239 -256 0
240 -256 0
241 -256 0
242 -256 0
243 -256 0
244 -256 0
245 -256 0
246 -256 0
247 -256 0
248 -256 0
249 -256 0
250 -256 0
-158 -208 -209 -210 -211 -212 -213 -214 -215 -216 -217 -218 -219 -220 -221 -222 -223 -224 -225 -226 -227 -228 -229 -230 -231 -232 -233 -234 -235 -236 -237 -238 -239 -240 -241 -242 -243 -244 -245 -246 -247 -248 -249 -250 256 0
159 -257 0
209 -257 0
210 -257 0
211 -257 0
212 -257 0
213 -257 0
214 -257 0
215 -257 0
216 -257 0
217 -257 0
218 -257 0
219 -257 0
220 -257 0
221 -257 0
222 -257 0
223 -257 0
224 -257 0
225 -257 0
226 -257 0
227 -257 0
228 -257 0
229 -257 0
230 -257 0
231 -257 0
232 -257 0
233 -257 0
234 -257 0
235 -257 0
236 -257 0
237 -257 0
238 -257 0
239 -257 0
240 -257 0
241 -257 0
242 -257 0
243 -257 0
244 -257 0
245 -257 0
246 -257 0
247 -257 0
248 -257 0
249 -257 0
250 -257 0
-159 -209 -210 -211 -212 -213 -214 -215 -216 -217 -218 -219 -220 -221 -222 -223 -224 -225 -226 -227 -228 -229 -230 -231 -232 -233 -234 -235 -236 -237 -238 -239 -240 -241 -242 -243 -244 -245 -246 -247 -248 -249 -250 257 0
160 -258 0
210 -258 0
211 -258 0
212 -258 0
213 -258 0
214 -258 0
215 -258 0
216 -258 0
217 -258 0
218 -258 0
219 -258 0
220 -258 0
221 -258 0
222 -258 0
223 -258 0
224 -258 0
225 -258 0
226 -258 0
227 -258 0
228 -258 0
229 -258 0
230 -258 0
231 -258 0
232 -258 0
233 -258 0
234 -258 0
235 -258 0
236 -258 0
237 -258 0
238 -258 0
239 -258 0
240 -258 0
241 -258 0
242 -258 0
243 -258 0
244 -258 0
245 -258 0
246 -258 0
247 -258 0
248 -258 0
249 -258 0
250 -258 0
-160 -210 -211 -212 -213 -214 -215 -216 -217 -218 -219 -220 -221 -222 -223 -224 -225 -226 -227 -228 -229 -230 -231 -232 -233 -234 -235 -236 -237 -238 -239 -240 -241 -242 -243 -244 -245 -246 -247 -248 -249 -250 258 0
161 -259 0
211 -259 0
212 -259 0
213 -259 0
214 -259 0
215 -259 0
216 -259 0
217 -259 0
218 -259 0
219 -259 0
220 -259 0
221 -259 0
222 -259 0
223 -259 0
224 -259 0
225 -259 0
226 -259 0
227 -259 0
228 -259 0
229 -259 0
230 -259 0
231 -259 0
232 -259 0
233 -259 0
234 -259 0
235 -259 0
236 -259 0
237 -259 0
238 -259 0
239 -259 0
240 -259 0
241 -259 0
242 -259 0
243 -259 0
244 -259 0
245 -259 0
246 -259 0
247 -259 0
248 -259 0
249 -259 0
250 -259 0
-161 -211 -212 -213 -214 -215 -216 -217 -218 -219 -220 -221 -222 -223 -224 -225 -226 -227 -228 -229 -230 -231 -232 -233 -234 -235 -236 -237 -238 -239 -240 -241 -242 -243 -244 -245 -246 -247 -248 -249 -250 259 0
162 -260 0
212 -260 0
213 -260 0
214 -260 0
215 -260 0
216 -260 0
217 -260 0
218 -260 0
219 -260 0
220 -260 0
221 -260 0
222 -260 0
223 -260 0
224 -260 0
225 -260 0
226 -260 0
227 -260 0
228 -260 0
229 -260 0
230 -260 0
231 -260 0
232 -260 0
233 -260 0
234 -260 0
235 -260 0
236 -260 0
237 -260 0
238 -260 0
239 -260 0
240 -260 0
241 -260 0
242 -260 0
243 -260 0
244 -260 0
245 -260 0
246 -260 0
247 -260 0
248 -260 0
249 -260 0
250 -260 0
-162 -212 -213 -214 -215 -216 -217 -218 -219 -220 -221 -222 -223 -224 -225 -226 -227 -228 -229 -230 -231 -232 -233 -234 -235 -236 -237 -238 -239 -240 -241 -242 -243 -244 -245 -246 -247 -248 -249 -250 260 0
163 -261 0
213 -261 0
214 -261 0
215 -261 0
216 -261 0
217 -261 0
218 -261 0
219 -261 0
220 -261 0
221 -261 0
222 -261 0
223 -261 0
224 -261 0
225 -261 0
226 -261 0
227 -261 0
228 -261 0
229 -261 0
230 -261 0
231 -261 0
232 -261 0
233 -261 0
234 -261 0
235 -261 0
236 -261 0
237 -261 0
238 -261 0
239 -261 0
240 -261 0
241 -261 0
242 -261 0
243 -261 0
244 -261 0
245 -261 0
246 -261 0
247 -261 0
248 -261 0
249 -261 0
250 -261 0
-163 -213 -214 -215 -216 -217 -218 -219 -220 -221 -222 -223 -224 -225 -226 -227 -228 -229 -230 -231 -232 -233 -234 -235 -236 -237 -238 -239 -240 -241 -242 -243 -244 -245 -246 -247 -248 -249 -250 261 0
164 -262 0
214 -262 0
215 -262 0
216 -262 0
217 -262 0
218 -262 0
219 -262 0
220 -262 0
221 -262 0
222 -262 0
223 -262 0
224 -262 0
225 -262 0
226 -262 0
227 -262 0
228 -262 0
229 -262 0
230 -262 0
231 -262 0
232 -262 0
233 -262 0
234 -262 0
235 -262 0
236 -262 0
237 -262 0
238 -262 0
239 -262 0
240 -262 0
241 -262 0
242 -262 0
243 -262 0
244 -262 0
245 -262 0
246 -262 0
247 -262 0
248 -262 0
249 -262 0
250 -262 0
-164 -214 -215 -216 -217 -218 -219 -220 -221 -222 -223 -224 -225 -226 -227 -228 -229 -230 -231 -232 -233 -234 -235 -236 -237 -238 -239 -240 -241 -242 -243 -244 -245 -246 -247 -248 -249 -250 262 0
165 -263 0
215 -263 0
216 -263 0
217 -263 0
218 -263 0
219 -263 0
220 -263 0
221 -263 0
222 -263 0
223 -263 0
224 -263 0
225 -263 0
226 -263 0
227 -263 0
228 -263 0
229 -263 0
230 -263 0
231 -263 0
232 -263 0
233 -263 0
234 -263 0
235 -263 0
236 -263 0
237 -263 0
238 -263 0
239 -263 0
240 -263 0
241 -263 0
242 -263 0
243 -263 0
244 -263 0
245 -263 0
246 -263 0
247 -263 0
248 -263 0
249 -263 0
250 -263 0
-165 -215 -216 -217 -218 -219 -220 -221 -222 -223 -224 -225 -226 -227 -228 -229 -230 -231 -232 -233 -234 -235 -236 -237 -238 -239 -240 -241 -242 -243 -244 -245 -246 -247 -248 -249 -250 263 0
166 -264 0
216 -264 0
217 -264 0
218 -264 0
219 -264 0
220 -264 0
221 -264 0
222 -264 0
223 -264 0
224 -264 0
225 -264 0
226 -264 0
227 -264 0
228 -264 0
229 -264 0
230 -264 0
231 -264 0
232 -264 0
233 -264 0
234 -264 0
235 -264 0
236 -264 0
237 -264 0
238 -264 0
239 -264 0
240 -264 0
241 -264 0
242 -264 0
243 -264 0
244 -264 0
245 -264 0
246 -264 0
247 -264 0
248 -264 0
249 -264 0
250 -264 0
-166 -216 -217 -218 -219 -220 -221 -222 -223 -224 -225 -226 -227 -228 -229 -230 -231 -232 -233 -234 -235 -236 -237 -238 -239 -240 -241 -242 -243 -244 -245 -246 -247 -248 -249 -250 264 0
167 -265 0
217 -265 0
218 -265 0
219 -265 0
220 -265 0
221 -265 0
222 -265 0
223 -265 0
224 -265 0
225 -265 0
226 -265 0
227 -265 0
228 -265 0
229 -265 0
230 -265 0
231 -265 0
232 -265 0
233 -265 0
234 -265 0
235 -265 0
236 -265 0
237 -265 0
238 -265 0
239 -265 0
240 -265 0
241 -265 0
242 -265 0
243 -265 0
244 -265 0
245 -265 0
246 -265 0
247 -265 0
248 -265 0
249 -265 0
250 -265 0
-167 -217 -218 -219 -220 -221 -222 -223 -224 -225 -226 -227 -228 -229 -230 -231 -232 -233 -234 -235 -236 -237 -238 -239 -240 -241 -242 -243 -244 -245 -246 -247 -248 -249 -250 265 0
168 -266 0
218 -266 0
219 -266 0
220 -266 0
221 -266 0
222 -266 0
223 -266 0
224 -266 0
225 -266 0
226 -266 0
227 -266 0
228 -266 0
229 -266 0
230 -266 0
231 -266 0
232 -266 0
233 -266 0
234 -266 0
235 -266 0
236 -266 0
237 -266 0
238 -266 0
239 -266 0
240 -266 0
241 -266 0
242 -266 0
243 -266 0
244 -266 0
245 -266 0
246 -266 0
247 -266 0
248 -266 0
249 -266 0
250 -266 0
-168 -218 -219 -220 -221 -222 -223 -224 -225 -226 -227 -228 -229 -230 -231 -232 -233 -234 -235 -236 -237 -238 -239 -240 -241 -242 -243 -244 -245 -246 -247 -248 -249 -250 266 0
169 -267 0
219 -267 0
220 -267 0
221 -267 0
222 -267 0
223 -267 0
224 -267 0
225 -267 0
226 -267 0
227 -267 0
228 -267 0
229 -267 0
230 -267 0
231 -267 0
232 -267 0
233 -267 0
234 -267 0
235 -267 0
236 -267 0
237 -267 0
238 -267 0
239 -267 0
240 -267 0
241 -267 0
242 -267 0
243 -267 0
244 -267 0
245 -267 0
246 -267 0
247 -267 0
248 -267 0
249 -267 0
250 -267 0
-169 -219 -220 -221 -222 -223 -224 -225 -226 -227 -228 -229 -230 -231 -232 -233 -234 -235 -236 -237 -238 -239 -240 -241 -242 -243 -244 -245 -246 -247 -248 -249 -250 267 0
170 -268 0
220 -268 0
221 -268 0
222 -268 0
223 -268 0
224 -268 0
225 -268 0
226 -268 0
227 -268 0
228 -268 0
229 -268 0
230 -268 0
231 -268 0
232 -268 0
233 -268 0
234 -268 0
235 -268 0
236 -268 0
237 -268 0
238 -268 0
239 -268 0
240 -268 0
241 -268 0
242 -268 0
243 -268 0
244 -268 0
245 -268 0
246 -268 0
247 -268 0
248 -268 0
249 -268 0
250 -268 0
-170 -220 -221 -222 -223 -224 -225 -226 -227 -228 -229 -230 -231 -232 -233 -234 -235 -236 -237 -238 -239 -240 -241 -242 -243 -244 -245 -246 -247 -248 -249 -250 268 0
171 -269 0
221 -269 0
222 -269 0
223 -269 0
224 -269 0
225 -269 0
226 -269 0
227 -269 0
228 -269 0
229 -269 0
230 -269 0
231 -269 0
232 -269 0
233 -269 0
234 -269 0
235 -269 0
236 -269 0
237 -269 0
238 -269 0
239 -269 0
240 -269 0
241 -269 0
242 -269 0
243 -269 0
244 -269 0
245 -269 0
246 -269 0
247 -269 0
248 -269 0
249 -269 0
250 -269 0
-171 -221 -222 -223 -224 -225 -226 -227 -228 -229 -230 -231 -232 -233 -234 -235 -236 -237 -238 -239 -240 -241 -242 -243 -244 -245 -246 -247 -248 -249 -250 269 0
172 -270 0
222 -270 0
223 -270 0
224 -270 0
225 -270 0
226 -270 0
227 -270 0
228 -270 0
229 -270 0
230 -270 0
231 -270 0
232 -270 0
233 -270 0
234 -270 0
235 -270 0
236 -270 0
237 -270 0
238 -270 0
239 -270 0
240 -270 0
241 -270 0
242 -270 0
243 -270 0
244 -270 0
245 -270 0
246 -270 0
247 -270 0
248 -270 0
249 -270 0
250 -270 0
-172 -222 -223 -224 -225 -226 -227 -228 -229 -230 -231 -232 -233 -234 -235 -236 -237 -238 -239 -240 -241 -242 -243 -244 -245 -246 -247 -248 -249 -250 270 0
173 -271 0
223 -271 0
224 -271 0
225 -271 0
226 -271 0
227 -271 0
228 -271 0
229 -271 0
230 -271 0
231 -271 0
232 -271 0
233 -271 0
234 -271 0
235 -271 0
236 -271 0
237 -271 0
238 -271 0
239 -271 0
240 -271 0
241 -271 0
242 -271 0
243 -271 0
244 -271 0
245 -271 0
246 -271 0
247 -271 0
248 -271 0
249 -271 0
250 -271 0
-173 -223 -224 -225 -226 -227 -228 -229 -230 -231 -232 -233 -234 -235 -236 -237 -238 -239 -240 -241 -242 -243 -244 -245 -246 -247 -248 -249 -250 271 0
174 -272 0
224 -272 0
225 -272 0
226 -272 0
227 -272 0
228 -272 0
229 -272 0
230 -272 0
231 -272 0
232 -272 0
233 -272 0
234 -272 0
235 -272 0
236 -272 0
237 -272 0
238 -272 0
239 -272 0
240 -272 0
241 -272 0
242 -272 0
243 -272 0
244 -272 0
245 -272 0
246 -272 0
247 -272 0
248 -272 0
249 -272 0
250 -272 0
-174 -224 -225 -226 -227 -228 -229 -230 -231 -232 -233 -234 -235 -236 -237 -238 -239 -240 -241 -242 -243 -244 -245 -246 -247 -248 -249 -250 272 0
175 -273 0
225 -273 0
226 -273 0
227 -273 0
228 -273 0
229 -273 0
230 -273 0
231 -273 0
232 -273 0
233 -273 0
234 -273 0
235 -273 0
236 -273 0
237 -273 0
238 -273 0
239 -273 0
240 -273 0
241 -273 0
242 -273 0
243 -273 0
244 -273 0
245 -273 0
246 -273 0
247 -273 0
248 -273 0
249 -273 0
250 -273 0
-175 -225 -226 -227 -228 -229 -230 -231 -232 -233 -234 -235 -236 -237 -238 -239 -240 -241 -242 -243 -244 -245 -246 -247 -248 -249 -250 273 0
176 -274 0
226 -274 0
227 -274 0
228 -274 0
229 -274 0
230 -274 0
231 -274 0
232 -274 0
233 -274 0
234 -274 0
235 -274 0
236 -274 0
237 -274 0
238 -274 0
239 -274 0
240 -274 0
241 -274 0
242 -274 0
243 -274 0
244 -274 0
245 -274 0
246 -274 0
247 -274 0
248 -274 0
249 -274 0
250 -274 0
-176 -226 -227 -228 -229 -230 -231 -232 -233 -234 -235 -236 -237 -238 -239 -240 -241 -242 -243 -244 -245 -246 -247 -248 -249 -250 274 0
177 -275 0
227 -275 0
228 -275 0
229 -275 0
230 -275 0
231 -275 0
232 -275 0
233 -275 0
234 -275 0
235 -275 0
236 -275 0
237 -275 0
238 -275 0
239 -275 0
240 -275 0
241 -275 0
242 -275 0
243 -275 0
244 -275 0
245 -275 0
246 -275 0
247 -275 0
248 -275 0
249 -275 0
250 -275 0
-177 -227 -228 -229 -230 -231 -232 -233 -234 -235 -236 -237 -238 -239 -240 -241 -242 -243 -244 -245 -246 -247 -248 -249 -250 275 0
178 -276 0
228 -276 0
229 -276 0
230 -276 0
231 -276 0
232 -276 0
233 -276 0
234 -276 0
235 -276 0
236 -276 0
237 -276 0
238 -276 0
239 -276 0
240 -276 0
241 -276 0
242 -276 0
243 -276 0
244 -276 0
245 -276 0
246 -276 0
247 -276 0
248 -276 0
249 -276 0
250 -276 0
-178 -228 -229 -230 -231 -232 -233 -234 -235 -236 -237 -238 -239 -240 -241 -242 -243 -244 -245 -246 -247 -248 -249 -250 276 0
179 -277 0
229 -277 0
230 -277 0
231 -277 0
232 -277 0
233 -277 0
234 -277 0
235 -277 0
236 -277 0
237 -277 0
238 -277 0
239 -277 0
240 -277 0
241 -277 0
242 -277 0
243 -277 0
244 -277 0
245 -277 0
246 -277 0
247 -277 0
248 -277 0
249 -277 0
250 -277 0
-179 -229 -230 -231 -232 -233 -234 -235 -236 -237 -238 -239 -240 -241 -242 -243 -244 -245 -246 -247 -248 -249 -250 277 0
180 -278 0
230 -278 0
231 -278 0
232 -278 0
233 -278 0
234 -278 0
235 -278 0
236 -278 0
237 -278 0
238 -278 0
239 -278 0
240 -278 0
241 -278 0
242 -278 0
243 -278 0
244 -278 0
245 -278 0
246 -278 0
247 -278 0
248 -278 0
249 -278 0
250 -278 0
-180 -230 -231 -232 -233 -234 -235 -236 -237 -238 -239 -240 -241 -242 -243 -244 -245 -246 -247 -248 -249 -250 278 0
181 -279 0
231 -279 0
232 -279 0
233 -279 0
234 -279 0
235 -279 0
236 -279 0
237 -279 0
238 -279 0
239 -279 0
240 -279 0
241 -279 0
242 -279 0
243 -279 0
244 -279 0
245 -279 0
246 -279 0
247 -279 0
248 -279 0
249 -279 0
250 -279 0
-181 -231 -232 -233 -234 -235 -236 -237 -238 -239 -240 -241 -242 -243 -244 -245 -246 -247 -248 -249 -250 279 0
182 -280 0
232 -280 0
233 -280 0
234 -280 0
235 -280 0
236 -280 0
237 -280 0
238 -280 0
239 -280 0
240 -280 0
241 -280 0
242 -280 0
243 -280 0
244 -280 0
245 -280 0
246 -280 0
247 -280 0
248 -280 0
249 -280 0
250 -280 0
-182 -232 -233 -234 -235 -236 -237 -238 -239 -240 -241 -242 -243 -244 -245 -246 -247 -248 -249 -250 280 0
183 -281 0
233 -281 0
234 -281 0
235 -281 0
236 -281 0
237 -281 0
238 -281 0
239 -281 0
240 -281 0
241 -281 0
242 -281 0
243 -281 0
244 -281 0
245 -281 0
246 -281 0
247 -281 0
248 -281 0
249 -281 0
250 -281 0
-183 -233 -234 -235 -236 -237 -238 -239 -240 -241 -242 -243 -244 -245 -246 -247 -248 -249 -250 281 0
184 -282 0
234 -282 0
235 -282 0
236 -282 0
237 -282 0
238 -282 0
239 -282 0
240 -282 0
241 -282 0
242 -282 0
243 -282 0
244 -282 0
245 -282 0
246 -282 0
247 -282 0
248 -282 0
249 -282 0
250 -282 0
-184 -234 -235 -236 -237 -238 -239 -240 -241 -242 -243 -244 -245 -246 -247 -248 -249 -250 282 0
185 -283 0
235 -283 0
236 -283 0
237 -283 0
238 -283 0
239 -283 0
240 -283 0
241 -283 0
242 -283 0
243 -283 0
244 -283 0
245 -283 0
246 -283 0
247 -283 0
248 -283 0
249 -283 0
250 -283 0
-185 -235 -236 -237 -238 -239 -240 -241 -242 -243 -244 -245 -246 -247 -248 -249 -250 283 0
186 -284 0
236 -284 0
237 -284 0
238 -284 0
239 -284 0
240 -284 0
241 -284 0
242 -284 0
243 -284 0
244 -284 0
245 -284 0
246 -284 0
247 -284 0
248 -284 0
249 -284 0
250 -284 0
-186 -236 -237 -238 -239 -240 -241 -242 -243 -244 -245 -246 -247 -248 -249 -250 284 0
187 -285 0
237 -285 0
238 -285 0
239 -285 0
240 -285 0
241 -285 0
242 -285 0
243 -285 0
244 -285 0
245 -285 0
246 -285 0
247 -285 0
248 -285 0
249 -285 0
250 -285 0
-187 -237 -238 -239 -240 -241 -242 -243 -244 -245 -246 -247 -248 -249 -250 285 0
188 -286 0
238 -286 0
239 -286 0
240 -286 0
241 -286 0
242 -286 0
243 -286 0
244 -286 0
245 -286 0
246 -286 0
247 -286 0
248 -286 0
249 -286 0
250 -286 0
-188 -238 -239 -240 -241 -242 -243 -244 -245 -246 -247 -248 -249 -250 286 0
189 -287 0
239 -287 0
240 -287 0
241 -287 0
242 -287 0
243 -287 0
244 -287 0
245 -287 0
246 -287 0
247 -287 0
248 -287 0
249 -287 0
250 -287 0
-189 -239 -240 -241 -242 -243 -244 -245 -246 -247 -248 -249 -250 287 0
190 -288 0
240 -288 0
241 -288 0
242 -288 0
243 -288 0
244 -288 0
245 -288 0
246 -288 0
247 -288 0
248 -288 0
249 -288 0
250 -288 0
-190 -240 -241 -242 -243 -244 -245 -246 -247 -248 -249 -250 288 0
191 -289 0
241 -289 0
242 -289 0
243 -289 0
244 -289 0
245 -289 0
246 -289 0
247 -289 0
248 -289 0
249 -289 0
250 -289 0
-191 -241 -242 -243 -244 -245 -246 -247 -248 -249 -250 289 0
192 -290 0
242 -290 0
243 -290 0
244 -290 0
245 -290 0
246 -290 0
247 -290 0
248 -290 0
249 -290 0
250 -290 0
-192 -242 -243 -244 -245 -246 -247 -248 -249 -250 290 0
193 -291 0
243 -291 0
244 -291 0
245 -291 0
246 -291 0
247 -291 0
248 -291 0
249 -291 0
250 -291 0
-193 -243 -244 -245 -246 -247 -248 -249 -250 291 0
194 -292 0
244 -292 0
245 -292 0
246 -292 0
247 -292 0
248 -292 0
249 -292 0
250 -292 0
-194 -244 -245 -246 -247 -248 -249 -250 292 0
195 -293 0
245 -293 0
246 -293 0
247 -293 0
248 -293 0
249 -293 0
250 -293 0
-195 -245 -246 -247 -248 -249 -250 293 0
196 -294 0
246 -294 0
247 -294 0
248 -294 0
249 -294 0
250 -294 0
-196 -246 -247 -248 -249 -250 294 0
197 -295 0
247 -295 0
248 -295 0
249 -295 0
250 -295 0
-197 -247 -248 -249 -250 295 0
198 -296 0
248 -296 0
249 -296 0
250 -296 0
-198 -248 -249 -250 296 0
199 -297 0
249 -297 0
250 -297 0
-199 -249 -250 297 0
200 -298 0
250 -298 0
-200 -250 298 0
201 -299 0
-201 299 0
-251 99 0
-252 99 0
-253 99 0
-254 99 0
-255 99 0
-256 99 0
-257 99 0
-258 99 0
-259 99 0
-260 99 0
-261 99 0
-262 99 0
-263 99 0
-264 99 0
-265 99 0
-266 99 0
-267 99 0
-268 99 0
-269 99 0
-270 99 0
-271 99 0
-272 99 0
-273 99 0
-274 99 0
-275 99 0
-276 99 0
-277 99 0
-278 99 0
-279 99 0
-280 99 0
-281 99 0
-282 99 0
-283 99 0
-284 99 0
-285 99 0
-286 99 0
-287 99 0
-288 99 0
-289 99 0
-290 99 0
-291 99 0
-292 99 0
-293 99 0
-294 99 0
-295 99 0
-296 99 0
-297 99 0
-298 99 0
-299 99 0
251 252 253 254 255 256 257 258 259 260 261 262 263 264 265 266 267 268 269 270 271 272 273 274 275 276 277 278 279 280 281 282 283 284 285 286 287 288 289 290 291 292 293 294 295 296 297 298 299 -99 0
202 -100 0
203 -100 0
204 -100 0
205 -100 0
206 -100 0
207 -100 0
208 -100 0
209 -100 0
210 -100 0
211 -100 0
212 -100 0
213 -100 0
214 -100 0
215 -100 0
216 -100 0
217 -100 0
218 -100 0
219 -100 0
220 -100 0
221 -100 0
222 -100 0
223 -100 0
224 -100 0
225 -100 0
226 -100 0
227 -100 0
228 -100 0
229 -100 0
230 -100 0
231 -100 0
232 -100 0
233 -100 0
234 -100 0
235 -100 0
236 -100 0
237 -100 0
238 -100 0
239 -100 0
240 -100 0
241 -100 0
242 -100 0
243 -100 0
244 -100 0
245 -100 0
246 -100 0
247 -100 0
248 -100 0
249 -100 0
250 -100 0
-202 -203 -204 -205 -206 -207 -208 -209 -210 -211 -212 -213 -214 -215 -216 -217 -218 -219 -220 -221 -222 -223 -224 -225 -226 -227 -228 -229 -230 -231 -232 -233 -234 -235 -236 -237 -238 -239 -240 -241 -242 -243 -244 -245 -246 -247 -248 -249 -250 100 0
-99 -101 0
-100 -101 0
99 100 101 0
